branch-and-cut/resultados/I080/i080-021.sol
1175
6
4 23
2 23
3 23
5 23
6 23
1 23
